(set-logic QF_LRA)
(declare-fun X0 () Real )
(declare-fun Y0 () Real )
(declare-fun X1 () Real )
(declare-fun Y1 () Real )
(declare-fun X2 () Real )
(declare-fun Y2 () Real )
(declare-fun X3 () Real )
(declare-fun Y3 () Real )
(declare-fun X4 () Real )
(declare-fun Y4 () Real )
(declare-fun X5 () Real )
(declare-fun Y5 () Real )
(declare-fun X6 () Real )
(declare-fun Y6 () Real )
(declare-fun X7 () Real )
(declare-fun Y7 () Real )
(declare-fun X8 () Real )
(declare-fun Y8 () Real )
(declare-fun Z () Real )
(declare-fun k () Real )
(assert (let
(( $goal (>= Z k) ))
(let
((
$phi ( and 
( or ( <= ( + X0 69 ) X1 )  ( <= ( + X1 20 ) X0 )  ( <= ( + Y0 9 ) Y1 )  ( <= ( + Y1 21 ) Y0 )  )
( or ( <= ( + X0 69 ) X2 )  ( <= ( + X2 45 ) X0 )  ( <= ( + Y0 9 ) Y2 )  ( <= ( + Y2 15 ) Y0 )  )
( or ( <= ( + X0 69 ) X3 )  ( <= ( + X3 73 ) X0 )  ( <= ( + Y0 9 ) Y3 )  ( <= ( + Y3 35 ) Y0 )  )
( or ( <= ( + X0 69 ) X4 )  ( <= ( + X4 92 ) X0 )  ( <= ( + Y0 9 ) Y4 )  ( <= ( + Y4 91 ) Y0 )  )
( or ( <= ( + X0 69 ) X5 )  ( <= ( + X5 50 ) X0 )  ( <= ( + Y0 9 ) Y5 )  ( <= ( + Y5 96 ) Y0 )  )
( or ( <= ( + X0 69 ) X6 )  ( <= ( + X6 48 ) X0 )  ( <= ( + Y0 9 ) Y6 )  ( <= ( + Y6 4 ) Y0 )  )
( or ( <= ( + X0 69 ) X7 )  ( <= ( + X7 22 ) X0 )  ( <= ( + Y0 9 ) Y7 )  ( <= ( + Y7 26 ) Y0 )  )
( or ( <= ( + X0 69 ) X8 )  ( <= ( + X8 28 ) X0 )  ( <= ( + Y0 9 ) Y8 )  ( <= ( + Y8 47 ) Y0 )  )
( or ( <= ( + X1 20 ) X2 )  ( <= ( + X2 45 ) X1 )  ( <= ( + Y1 21 ) Y2 )  ( <= ( + Y2 15 ) Y1 )  )
( or ( <= ( + X1 20 ) X3 )  ( <= ( + X3 73 ) X1 )  ( <= ( + Y1 21 ) Y3 )  ( <= ( + Y3 35 ) Y1 )  )
( or ( <= ( + X1 20 ) X4 )  ( <= ( + X4 92 ) X1 )  ( <= ( + Y1 21 ) Y4 )  ( <= ( + Y4 91 ) Y1 )  )
( or ( <= ( + X1 20 ) X5 )  ( <= ( + X5 50 ) X1 )  ( <= ( + Y1 21 ) Y5 )  ( <= ( + Y5 96 ) Y1 )  )
( or ( <= ( + X1 20 ) X6 )  ( <= ( + X6 48 ) X1 )  ( <= ( + Y1 21 ) Y6 )  ( <= ( + Y6 4 ) Y1 )  )
( or ( <= ( + X1 20 ) X7 )  ( <= ( + X7 22 ) X1 )  ( <= ( + Y1 21 ) Y7 )  ( <= ( + Y7 26 ) Y1 )  )
( or ( <= ( + X1 20 ) X8 )  ( <= ( + X8 28 ) X1 )  ( <= ( + Y1 21 ) Y8 )  ( <= ( + Y8 47 ) Y1 )  )
( or ( <= ( + X2 45 ) X3 )  ( <= ( + X3 73 ) X2 )  ( <= ( + Y2 15 ) Y3 )  ( <= ( + Y3 35 ) Y2 )  )
( or ( <= ( + X2 45 ) X4 )  ( <= ( + X4 92 ) X2 )  ( <= ( + Y2 15 ) Y4 )  ( <= ( + Y4 91 ) Y2 )  )
( or ( <= ( + X2 45 ) X5 )  ( <= ( + X5 50 ) X2 )  ( <= ( + Y2 15 ) Y5 )  ( <= ( + Y5 96 ) Y2 )  )
( or ( <= ( + X2 45 ) X6 )  ( <= ( + X6 48 ) X2 )  ( <= ( + Y2 15 ) Y6 )  ( <= ( + Y6 4 ) Y2 )  )
( or ( <= ( + X2 45 ) X7 )  ( <= ( + X7 22 ) X2 )  ( <= ( + Y2 15 ) Y7 )  ( <= ( + Y7 26 ) Y2 )  )
( or ( <= ( + X2 45 ) X8 )  ( <= ( + X8 28 ) X2 )  ( <= ( + Y2 15 ) Y8 )  ( <= ( + Y8 47 ) Y2 )  )
( or ( <= ( + X3 73 ) X4 )  ( <= ( + X4 92 ) X3 )  ( <= ( + Y3 35 ) Y4 )  ( <= ( + Y4 91 ) Y3 )  )
( or ( <= ( + X3 73 ) X5 )  ( <= ( + X5 50 ) X3 )  ( <= ( + Y3 35 ) Y5 )  ( <= ( + Y5 96 ) Y3 )  )
( or ( <= ( + X3 73 ) X6 )  ( <= ( + X6 48 ) X3 )  ( <= ( + Y3 35 ) Y6 )  ( <= ( + Y6 4 ) Y3 )  )
( or ( <= ( + X3 73 ) X7 )  ( <= ( + X7 22 ) X3 )  ( <= ( + Y3 35 ) Y7 )  ( <= ( + Y7 26 ) Y3 )  )
( or ( <= ( + X3 73 ) X8 )  ( <= ( + X8 28 ) X3 )  ( <= ( + Y3 35 ) Y8 )  ( <= ( + Y8 47 ) Y3 )  )
( or ( <= ( + X4 92 ) X5 )  ( <= ( + X5 50 ) X4 )  ( <= ( + Y4 91 ) Y5 )  ( <= ( + Y5 96 ) Y4 )  )
( or ( <= ( + X4 92 ) X6 )  ( <= ( + X6 48 ) X4 )  ( <= ( + Y4 91 ) Y6 )  ( <= ( + Y6 4 ) Y4 )  )
( or ( <= ( + X4 92 ) X7 )  ( <= ( + X7 22 ) X4 )  ( <= ( + Y4 91 ) Y7 )  ( <= ( + Y7 26 ) Y4 )  )
( or ( <= ( + X4 92 ) X8 )  ( <= ( + X8 28 ) X4 )  ( <= ( + Y4 91 ) Y8 )  ( <= ( + Y8 47 ) Y4 )  )
( or ( <= ( + X5 50 ) X6 )  ( <= ( + X6 48 ) X5 )  ( <= ( + Y5 96 ) Y6 )  ( <= ( + Y6 4 ) Y5 )  )
( or ( <= ( + X5 50 ) X7 )  ( <= ( + X7 22 ) X5 )  ( <= ( + Y5 96 ) Y7 )  ( <= ( + Y7 26 ) Y5 )  )
( or ( <= ( + X5 50 ) X8 )  ( <= ( + X8 28 ) X5 )  ( <= ( + Y5 96 ) Y8 )  ( <= ( + Y8 47 ) Y5 )  )
( or ( <= ( + X6 48 ) X7 )  ( <= ( + X7 22 ) X6 )  ( <= ( + Y6 4 ) Y7 )  ( <= ( + Y7 26 ) Y6 )  )
( or ( <= ( + X6 48 ) X8 )  ( <= ( + X8 28 ) X6 )  ( <= ( + Y6 4 ) Y8 )  ( <= ( + Y8 47 ) Y6 )  )
( or ( <= ( + X7 22 ) X8 )  ( <= ( + X8 28 ) X7 )  ( <= ( + Y7 26 ) Y8 )  ( <= ( + Y8 47 ) Y7 )  )
( >= X0 0)
( <= ( + X0 69) Z)
( >= Y0 0)
( <= ( + Y0 9 ) 100)
( >= X1 0)
( <= ( + X1 20) Z)
( >= Y1 0)
( <= ( + Y1 21 ) 100)
( >= X2 0)
( <= ( + X2 45) Z)
( >= Y2 0)
( <= ( + Y2 15 ) 100)
( >= X3 0)
( <= ( + X3 73) Z)
( >= Y3 0)
( <= ( + Y3 35 ) 100)
( >= X4 0)
( <= ( + X4 92) Z)
( >= Y4 0)
( <= ( + Y4 91 ) 100)
( >= X5 0)
( <= ( + X5 50) Z)
( >= Y5 0)
( <= ( + Y5 96 ) 100)
( >= X6 0)
( <= ( + X6 48) Z)
( >= Y6 0)
( <= ( + Y6 4 ) 100)
( >= X7 0)
( <= ( + X7 22) Z)
( >= Y7 0)
( <= ( + Y7 26 ) 100)
( >= X8 0)
( <= ( + X8 28) Z)
( >= Y8 0)
( <= ( + Y8 47 ) 100)
) )
)(=> $phi $goal))))